Version identifier: 22.1.0.0 | 2022-03-09 | 1a383f8ce
CPXPARAM_Read_DataCheck                          1
Tried aggregator 3 times.
MIP Presolve eliminated 580 rows and 216 columns.
MIP Presolve modified 22 coefficients.
Aggregator did 386 substitutions.
Reduced MIP has 195 rows, 418 columns, and 1016 nonzeros.
Reduced MIP has 412 binaries, 6 generals, 0 SOSs, and 0 indicators.
Presolve time = 0.00 sec. (2.81 ticks)
Probing fixed 8 vars, tightened 0 bounds.
Probing time = 0.00 sec. (0.58 ticks)
Tried aggregator 2 times.
Detecting symmetries...
MIP Presolve eliminated 8 rows and 21 columns.
Aggregator did 6 substitutions.
Reduced MIP has 181 rows, 391 columns, and 953 nonzeros.
Reduced MIP has 380 binaries, 11 generals, 0 SOSs, and 0 indicators.
Presolve time = 0.00 sec. (1.33 ticks)
Probing time = 0.00 sec. (0.23 ticks)
Cover probing fixed 0 vars, tightened 3 bounds.
Clique table members: 568.
MIP emphasis: balance optimality and feasibility.
MIP search method: dynamic search.
Parallel mode: deterministic, using up to 8 threads.
Root relaxation solution time = 0.01 sec. (0.94 ticks)

        Nodes                                         Cuts/
   Node  Left     Objective  IInf  Best Integer    Best Bound    ItCnt     Gap

      0     0        6.3750   118                      6.3750      139         
      0     0        9.0000    68                    Cuts: 57      312         
      0     0        9.0000    55                    Cuts: 19      424         
      0     0        9.0933   142                    Cuts: 22      570         
      0     0        9.1561   133                ZeroHalf: 23      603         
      0     0        9.1693   142                    Cuts: 24      649         
      0     0        9.1886   136                ZeroHalf: 23      676         
      0     0        9.2010   132                    Cuts: 21      713         
      0     0        9.2091   132                ZeroHalf: 14      753         
      0     0        9.2169   125                ZeroHalf: 13      777         
      0     0        9.2202   116                     Cuts: 9      799         
      0     0        9.2207   130                ZeroHalf: 14      809         
      0     0        9.2216   126                 ZeroHalf: 3      819         
*     0+    0                           10.0000        9.2216             7.78%
      0     0        cutoff             10.0000       10.0000      819    0.00%
Elapsed time = 0.14 sec. (82.24 ticks, tree = 0.01 MB, solutions = 1)

Clique cuts applied:  1
Zero-half cuts applied:  20
Gomory fractional cuts applied:  7

Root node processing (before b&c):
  Real time             =    0.14 sec. (82.28 ticks)
Parallel b&c, 8 threads:
  Real time             =    0.00 sec. (0.00 ticks)
  Sync time (average)   =    0.00 sec.
  Wait time (average)   =    0.00 sec.
                          ------------
Total (root+branch&cut) =    0.14 sec. (82.28 ticks)
